; Main idea of this invariant proof
; If ctr are equal in both games and they use the same randomness, then both games 
;    - produce the same output
;    - abort iff the other aborts
;    - have same ctr afterwards

;;;;;;;;;;;;;;;;;;;;;;;;;;;;;;
;
; Randomness mapping
;
;;;;;;;;;;;;;;;;;;;;;;;;;;;;;;

(define-fun randomness-mapping-Send1
  ( (base-ctr-0 Int) ; This is the counter in the beginning of the oracle call on the left.
    (base-ctr-1 Int) ; This is the counter in the beginning of the oracle call on the left.
    (id-0  Int)      ; This is the sample-id, see LaTeX export for which id corresponds to which sampling.
    (id-1  Int)      ; This is the sample-id, see LaTeX export for which id corresponds to which sampling.
    (scr-0 Int)      ; This is the counter which gets incremented each time a sampling is done with the same sample id.
    (scr-1 Int))     ; This is the counter which gets incremented each time a sampling is done with the same sample id.
  Bool
  (and
    (= scr-1 base-ctr-1)
    (= scr-0 base-ctr-0)
    (= id-0      0)  ; Sampling of ni in Nonces
    (= id-1      0)  ; Sampling of ni in Nonces
    ))

(define-fun randomness-mapping-Send2
  ( (base-ctr-0 Int) ; This is the counter in the beginning of the oracle call on the left.
    (base-ctr-1 Int) ; This is the counter in the beginning of the oracle call on the left.
    (id-0  Int)      ; This is the sample-id, see LaTeX export for which id corresponds to which sampling.
    (id-1  Int)      ; This is the sample-id, see LaTeX export for which id corresponds to which sampling.
    (scr-0 Int)      ; This is the counter which gets incremented each time a sampling is done with the same sample id.
    (scr-1 Int))     ; This is the counter which gets incremented each time a sampling is done with the same sample id.
  Bool
  (and
    (= scr-1 base-ctr-1)
    (= scr-0 base-ctr-0)
    (= id-0      1)  ; Sampling of nr in Nonces
    (= id-1      0)  ; Sampling of nr in Nonces
  ))

(define-fun randomness-mapping-Send3
  ( (base-ctr-0 Int) ; This is the counter in the beginning of the oracle call on the left.
    (base-ctr-1 Int) ; This is the counter in the beginning of the oracle call on the left.
    (id-0  Int)      ; This is the sample-id, see LaTeX export for which id corresponds to which sampling.
    (id-1  Int)      ; This is the sample-id, see LaTeX export for which id corresponds to which sampling.
    (scr-0 Int)      ; This is the counter which gets incremented each time a sampling is done with the same sample id.
    (scr-1 Int))     ; This is the counter which gets incremented each time a sampling is done with the same sample id.
  Bool
                     ; There is no randomness used in this oracle.
					 false
)

(define-fun randomness-mapping-Send4
  ( (base-ctr-0 Int) ; This is the counter in the beginning of the oracle call on the left.
    (base-ctr-1 Int) ; This is the counter in the beginning of the oracle call on the left.
    (id-0  Int)      ; This is the sample-id, see LaTeX export for which id corresponds to which sampling.
    (id-1  Int)      ; This is the sample-id, see LaTeX export for which id corresponds to which sampling.
    (scr-0 Int)      ; This is the counter which gets incremented each time a sampling is done with the same sample id.
    (scr-1 Int))     ; This is the counter which gets incremented each time a sampling is done with the same sample id.
  Bool
                     ; There is no randomness used in this oracle.
					 false
)

(define-fun randomness-mapping-Send5
  ( (base-ctr-0 Int) ; This is the counter in the beginning of the oracle call on the left.
    (base-ctr-1 Int) ; This is the counter in the beginning of the oracle call on the left.
    (id-0  Int)      ; This is the sample-id, see LaTeX export for which id corresponds to which sampling.
    (id-1  Int)      ; This is the sample-id, see LaTeX export for which id corresponds to which sampling.
    (scr-0 Int)      ; This is the counter which gets incremented each time a sampling is done with the same sample id.
    (scr-1 Int))     ; This is the counter which gets incremented each time a sampling is done with the same sample id.
  Bool
                     ; There is no randomness used in this oracle.
					 false
)

(define-fun randomness-mapping-Reveal
  ( (base-ctr-0 Int) ; This is the counter in the beginning of the oracle call on the left.
    (base-ctr-1 Int) ; This is the counter in the beginning of the oracle call on the left.
    (id-0  Int)      ; This is the sample-id, see LaTeX export for which id corresponds to which sampling.
    (id-1  Int)      ; This is the sample-id, see LaTeX export for which id corresponds to which sampling.
    (scr-0 Int)      ; This is the counter which gets incremented each time a sampling is done with the same sample id.
    (scr-1 Int))     ; This is the counter which gets incremented each time a sampling is done with the same sample id.
  Bool
                     ; There is no randomness used in this oracle.
					 false
)

(define-fun randomness-mapping-Test
  ( (base-ctr-0 Int) ; This is the counter in the beginning of the oracle call on the left.
    (base-ctr-1 Int) ; This is the counter in the beginning of the oracle call on the left.
    (id-0  Int)      ; This is the sample-id, see LaTeX export for which id corresponds to which sampling.
    (id-1  Int)      ; This is the sample-id, see LaTeX export for which id corresponds to which sampling.
    (scr-0 Int)      ; This is the counter which gets incremented each time a sampling is done with the same sample id.
    (scr-1 Int))     ; This is the counter which gets incremented each time a sampling is done with the same sample id.
  Bool
  (and
    (= scr-1 base-ctr-1)
    (= id-0     3)   ; This is the 1st sampling in H1_1 and samples the random key in Test.
    (= id-1     2)   ; This is the 1st sampling in H2_0 and samples the random key in Test.
))

(define-fun randomness-mapping-SameKey
  ( (base-ctr-0 Int) ; This is the counter in the beginning of the oracle call on the left.
    (base-ctr-1 Int) ; This is the counter in the beginning of the oracle call on the left.
    (id-0  Int)      ; This is the sample-id, see LaTeX export for which id corresponds to which sampling.
    (id-1  Int)      ; This is the sample-id, see LaTeX export for which id corresponds to which sampling.
    (scr-0 Int)      ; This is the counter which gets incremented each time a sampling is done with the same sample id.
    (scr-1 Int))     ; This is the counter which gets incremented each time a sampling is done with the same sample id.
  Bool
                     ; There is no randomness used in this oracle.
					 false
)
(define-fun randomness-mapping-AtMost
  ( (base-ctr-0 Int) ; This is the counter in the beginning of the oracle call on the left.
    (base-ctr-1 Int) ; This is the counter in the beginning of the oracle call on the left.
    (id-0  Int)      ; This is the sample-id, see LaTeX export for which id corresponds to which sampling.
    (id-1  Int)      ; This is the sample-id, see LaTeX export for which id corresponds to which sampling.
    (scr-0 Int)      ; This is the counter which gets incremented each time a sampling is done with the same sample id.
    (scr-1 Int))     ; This is the counter which gets incremented each time a sampling is done with the same sample id.
  Bool
                     ; There is no randomness used in this oracle.
					 false
)
(define-fun randomness-mapping-AtLeast
  ( (base-ctr-0 Int) ; This is the counter in the beginning of the oracle call on the left.
    (base-ctr-1 Int) ; This is the counter in the beginning of the oracle call on the left.
    (id-0  Int)      ; This is the sample-id, see LaTeX export for which id corresponds to which sampling.
    (id-1  Int)      ; This is the sample-id, see LaTeX export for which id corresponds to which sampling.
    (scr-0 Int)      ; This is the counter which gets incremented each time a sampling is done with the same sample id.
    (scr-1 Int))     ; This is the counter which gets incremented each time a sampling is done with the same sample id.
  Bool
                     ; There is no randomness used in this oracle.
					 false
)


(define-fun randomness-mapping-NewKey
  ( (base-ctr-0 Int) ; This is the counter in the beginning of the oracle call on the left.
    (base-ctr-1 Int) ; This is the counter in the beginning of the oracle call on the left.
    (id-0  Int)      ; This is the sample-id, see LaTeX export for which id corresponds to which sampling.
    (id-1  Int)      ; This is the sample-id, see LaTeX export for which id corresponds to which sampling.
    (scr-0 Int)      ; This is the counter which gets incremented each time a sampling is done with the same sample id.
    (scr-1 Int))     ; This is the counter which gets incremented each time a sampling is done with the same sample id.
  Bool
  (and
    (= scr-1 base-ctr-1)
    (= scr-0 base-ctr-0)
    (= id-0     2)   ; This is the 0th sampling in H1_1 and samples the random key in NewKey.
    (= id-1     1)   ; This is the 0th sampling in H2_0 and samples the random key in NewKey.
  ))

(define-fun randomness-mapping-NewSession
  ( (base-ctr-0 Int) ; This is the counter in the beginning of the oracle call on the left.
    (base-ctr-1 Int) ; This is the counter in the beginning of the oracle call on the left.
    (id-0  Int)      ; This is the sample-id, see LaTeX export for which id corresponds to which sampling.
    (id-1  Int)      ; This is the sample-id, see LaTeX export for which id corresponds to which sampling.
    (scr-0 Int)      ; This is the counter which gets incremented each time a sampling is done with the same sample id.
    (scr-1 Int))     ; This is the counter which gets incremented each time a sampling is done with the same sample id.
  Bool
                     ; There is no randomness used in this oracle.
					 false
)

;;;;;;;;;;;;;;;;;;;;;;;;;;;;;;;;;;;;;;;;;;;;;;;;;;;;;;;;;;;;;;;;;;;;;;;;;;;;;;;;;;;;;;;;;;;;;;;;;;;;;;;;
;                                                                                                      ;
; Invariant --- note that the invariant needs to be game-global and not per oracle,                    ;
;               so that induction over the oracle calls remains meaningful.                            ;
;                                                                                                      ;
;;;;;;;;;;;;;;;;;;;;;;;;;;;;;;;;;;;;;;;;;;;;;;;;;;;;;;;;;;;;;;;;;;;;;;;;;;;;;;;;;;;;;;;;;;;;;;;;;;;;;;;;

(define-fun invariant
    ((state-left  <GameState_KX_<$<!n!>$>>)
     (state-right <GameState_H1_<$<!n!>$>>))
  Bool
  (= (<game-KX-<$<!n!>$>-pkgstate-Game> state-left)    
     (<game-H1-<$<!n!>$>-pkgstate-Game> state-right)))
